c File: flat50_3_0.col
c
c SOURCE: Joseph Culberson (joe@cs.ualberta.ca)
c DESCRIPTION: Quasi-random coloring problem
c              generated with flatness = 0
c                             probability = 0.139
c                             known coloring = 3
c                             random seed = 1581
c              Creation Date:  Tue Jun  9 12:12:47 1998
c Maximum degree = 8 Minimum degree = 1
c p edge 50 115
c cnf created by edge2cnf
p cnf 150 545
-1 -2 0
-1 -3 0
-2 -3 0
1 2 3 0
-4 -5 0
-4 -6 0
-5 -6 0
4 5 6 0
-7 -8 0
-7 -9 0
-8 -9 0
7 8 9 0
-10 -11 0
-10 -12 0
-11 -12 0
10 11 12 0
-13 -14 0
-13 -15 0
-14 -15 0
13 14 15 0
-16 -17 0
-16 -18 0
-17 -18 0
16 17 18 0
-19 -20 0
-19 -21 0
-20 -21 0
19 20 21 0
-22 -23 0
-22 -24 0
-23 -24 0
22 23 24 0
-25 -26 0
-25 -27 0
-26 -27 0
25 26 27 0
-28 -29 0
-28 -30 0
-29 -30 0
28 29 30 0
-31 -32 0
-31 -33 0
-32 -33 0
31 32 33 0
-34 -35 0
-34 -36 0
-35 -36 0
34 35 36 0
-37 -38 0
-37 -39 0
-38 -39 0
37 38 39 0
-40 -41 0
-40 -42 0
-41 -42 0
40 41 42 0
-43 -44 0
-43 -45 0
-44 -45 0
43 44 45 0
-46 -47 0
-46 -48 0
-47 -48 0
46 47 48 0
-49 -50 0
-49 -51 0
-50 -51 0
49 50 51 0
-52 -53 0
-52 -54 0
-53 -54 0
52 53 54 0
-55 -56 0
-55 -57 0
-56 -57 0
55 56 57 0
-58 -59 0
-58 -60 0
-59 -60 0
58 59 60 0
-61 -62 0
-61 -63 0
-62 -63 0
61 62 63 0
-64 -65 0
-64 -66 0
-65 -66 0
64 65 66 0
-67 -68 0
-67 -69 0
-68 -69 0
67 68 69 0
-70 -71 0
-70 -72 0
-71 -72 0
70 71 72 0
-73 -74 0
-73 -75 0
-74 -75 0
73 74 75 0
-76 -77 0
-76 -78 0
-77 -78 0
76 77 78 0
-79 -80 0
-79 -81 0
-80 -81 0
79 80 81 0
-82 -83 0
-82 -84 0
-83 -84 0
82 83 84 0
-85 -86 0
-85 -87 0
-86 -87 0
85 86 87 0
-88 -89 0
-88 -90 0
-89 -90 0
88 89 90 0
-91 -92 0
-91 -93 0
-92 -93 0
91 92 93 0
-94 -95 0
-94 -96 0
-95 -96 0
94 95 96 0
-97 -98 0
-97 -99 0
-98 -99 0
97 98 99 0
-100 -101 0
-100 -102 0
-101 -102 0
100 101 102 0
-103 -104 0
-103 -105 0
-104 -105 0
103 104 105 0
-106 -107 0
-106 -108 0
-107 -108 0
106 107 108 0
-109 -110 0
-109 -111 0
-110 -111 0
109 110 111 0
-112 -113 0
-112 -114 0
-113 -114 0
112 113 114 0
-115 -116 0
-115 -117 0
-116 -117 0
115 116 117 0
-118 -119 0
-118 -120 0
-119 -120 0
118 119 120 0
-121 -122 0
-121 -123 0
-122 -123 0
121 122 123 0
-124 -125 0
-124 -126 0
-125 -126 0
124 125 126 0
-127 -128 0
-127 -129 0
-128 -129 0
127 128 129 0
-130 -131 0
-130 -132 0
-131 -132 0
130 131 132 0
-133 -134 0
-133 -135 0
-134 -135 0
133 134 135 0
-136 -137 0
-136 -138 0
-137 -138 0
136 137 138 0
-139 -140 0
-139 -141 0
-140 -141 0
139 140 141 0
-142 -143 0
-142 -144 0
-143 -144 0
142 143 144 0
-145 -146 0
-145 -147 0
-146 -147 0
145 146 147 0
-148 -149 0
-148 -150 0
-149 -150 0
148 149 150 0
-58 -1 0
-59 -2 0
-60 -3 0
-70 -1 0
-71 -2 0
-72 -3 0
-85 -1 0
-86 -2 0
-87 -3 0
-100 -1 0
-101 -2 0
-102 -3 0
-103 -1 0
-104 -2 0
-105 -3 0
-121 -1 0
-122 -2 0
-123 -3 0
-130 -1 0
-131 -2 0
-132 -3 0
-133 -1 0
-134 -2 0
-135 -3 0
-58 -4 0
-59 -5 0
-60 -6 0
-67 -4 0
-68 -5 0
-69 -6 0
-73 -4 0
-74 -5 0
-75 -6 0
-127 -4 0
-128 -5 0
-129 -6 0
-133 -4 0
-134 -5 0
-135 -6 0
-52 -7 0
-53 -8 0
-54 -9 0
-91 -7 0
-92 -8 0
-93 -9 0
-148 -7 0
-149 -8 0
-150 -9 0
-55 -10 0
-56 -11 0
-57 -12 0
-64 -10 0
-65 -11 0
-66 -12 0
-73 -10 0
-74 -11 0
-75 -12 0
-76 -10 0
-77 -11 0
-78 -12 0
-109 -10 0
-110 -11 0
-111 -12 0
-130 -10 0
-131 -11 0
-132 -12 0
-136 -10 0
-137 -11 0
-138 -12 0
-100 -13 0
-101 -14 0
-102 -15 0
-139 -13 0
-140 -14 0
-141 -15 0
-79 -16 0
-80 -17 0
-81 -18 0
-88 -16 0
-89 -17 0
-90 -18 0
-103 -16 0
-104 -17 0
-105 -18 0
-133 -16 0
-134 -17 0
-135 -18 0
-136 -16 0
-137 -17 0
-138 -18 0
-145 -16 0
-146 -17 0
-147 -18 0
-73 -19 0
-74 -20 0
-75 -21 0
-88 -19 0
-89 -20 0
-90 -21 0
-100 -19 0
-101 -20 0
-102 -21 0
-103 -19 0
-104 -20 0
-105 -21 0
-106 -19 0
-107 -20 0
-108 -21 0
-148 -19 0
-149 -20 0
-150 -21 0
-67 -22 0
-68 -23 0
-69 -24 0
-76 -22 0
-77 -23 0
-78 -24 0
-79 -22 0
-80 -23 0
-81 -24 0
-91 -22 0
-92 -23 0
-93 -24 0
-106 -22 0
-107 -23 0
-108 -24 0
-118 -22 0
-119 -23 0
-120 -24 0
-124 -22 0
-125 -23 0
-126 -24 0
-73 -25 0
-74 -26 0
-75 -27 0
-79 -25 0
-80 -26 0
-81 -27 0
-67 -28 0
-68 -29 0
-69 -30 0
-100 -28 0
-101 -29 0
-102 -30 0
-103 -28 0
-104 -29 0
-105 -30 0
-124 -28 0
-125 -29 0
-126 -30 0
-142 -28 0
-143 -29 0
-144 -30 0
-52 -31 0
-53 -32 0
-54 -33 0
-85 -31 0
-86 -32 0
-87 -33 0
-121 -31 0
-122 -32 0
-123 -33 0
-127 -31 0
-128 -32 0
-129 -33 0
-133 -34 0
-134 -35 0
-135 -36 0
-139 -34 0
-140 -35 0
-141 -36 0
-52 -37 0
-53 -38 0
-54 -39 0
-61 -37 0
-62 -38 0
-63 -39 0
-64 -37 0
-65 -38 0
-66 -39 0
-64 -40 0
-65 -41 0
-66 -42 0
-94 -40 0
-95 -41 0
-96 -42 0
-121 -40 0
-122 -41 0
-123 -42 0
-52 -43 0
-53 -44 0
-54 -45 0
-76 -43 0
-77 -44 0
-78 -45 0
-79 -43 0
-80 -44 0
-81 -45 0
-88 -43 0
-89 -44 0
-90 -45 0
-115 -43 0
-116 -44 0
-117 -45 0
-124 -43 0
-125 -44 0
-126 -45 0
-136 -43 0
-137 -44 0
-138 -45 0
-55 -46 0
-56 -47 0
-57 -48 0
-61 -46 0
-62 -47 0
-63 -48 0
-106 -46 0
-107 -47 0
-108 -48 0
-148 -46 0
-149 -47 0
-150 -48 0
-115 -49 0
-116 -50 0
-117 -51 0
-124 -49 0
-125 -50 0
-126 -51 0
-139 -49 0
-140 -50 0
-141 -51 0
-145 -49 0
-146 -50 0
-147 -51 0
-103 -52 0
-104 -53 0
-105 -54 0
-121 -52 0
-122 -53 0
-123 -54 0
-124 -52 0
-125 -53 0
-126 -54 0
-133 -55 0
-134 -56 0
-135 -57 0
-106 -58 0
-107 -59 0
-108 -60 0
-127 -58 0
-128 -59 0
-129 -60 0
-139 -58 0
-140 -59 0
-141 -60 0
-118 -61 0
-119 -62 0
-120 -63 0
-121 -61 0
-122 -62 0
-123 -63 0
-136 -61 0
-137 -62 0
-138 -63 0
-148 -61 0
-149 -62 0
-150 -63 0
-112 -64 0
-113 -65 0
-114 -66 0
-127 -64 0
-128 -65 0
-129 -66 0
-136 -64 0
-137 -65 0
-138 -66 0
-133 -67 0
-134 -68 0
-135 -69 0
-145 -67 0
-146 -68 0
-147 -69 0
-133 -70 0
-134 -71 0
-135 -72 0
-145 -70 0
-146 -71 0
-147 -72 0
-106 -73 0
-107 -74 0
-108 -75 0
-121 -73 0
-122 -74 0
-123 -75 0
-124 -73 0
-125 -74 0
-126 -75 0
-127 -73 0
-128 -74 0
-129 -75 0
-115 -76 0
-116 -77 0
-117 -78 0
-124 -76 0
-125 -77 0
-126 -78 0
-103 -79 0
-104 -80 0
-105 -81 0
-106 -79 0
-107 -80 0
-108 -81 0
-115 -79 0
-116 -80 0
-117 -81 0
-103 -82 0
-104 -83 0
-105 -84 0
-112 -88 0
-113 -89 0
-114 -90 0
-121 -88 0
-122 -89 0
-123 -90 0
-115 -91 0
-116 -92 0
-117 -93 0
-130 -91 0
-131 -92 0
-132 -93 0
-109 -94 0
-110 -95 0
-111 -96 0
-112 -94 0
-113 -95 0
-114 -96 0
-130 -97 0
-131 -98 0
-132 -99 0
-130 -100 0
-131 -101 0
-132 -102 0
-133 -100 0
-134 -101 0
-135 -102 0
